/*********************************************
 * OPL 12.6.0.0 Data
 * Author: Adrian Rodriguez Bazaga, Pau Rodriguez Esmerats
 * Creation Date: 06/12/2017 at 23:04:59
 *********************************************/

nNurses=248;
maxConsec=2;
maxPresence=7;
maxHours=5;
minHours=1;
hours=24;
demand= [41 41 62 63 41 62 63 43 43 26 5 5 8 8 10 6 9 4 5 3 39 69 32 57  ];
